4 153 47 84 102 179 68 45 128 99 65 130 46 191 113 166 134 90 41 145 80 55 81 126 174 33 66 96 193 141 2 1 185 120 97 39 75 67 175 36 
142 92 195 37 182 155 124 183 18 170 25 10 86 189 114 52 106 74 101 192 87 71 137 79 116 158 17 13 8 135 93 76 34 60 19 30 64 83 148 
140 131 28 163 6 172 167 14 132 184 98 38 32 23 117 21 139 150 186 110 95 44 50 194 121 123 115 70 82 154 157 146 
54 100 57 88 127 199 12 59 56 108 119 173 94 160 112 151 109 58 129 144 91 107 178 73 11 
48 152 165 5 181 118 105 69 159 20 187 138 22 
162 156 15 169 24 7 200 196 190 3 180 136 89 188 29 72 51 27 111 198 
133 31 177 85 16 40 26 104 122 77 125 
42 9 49 197 62 164 35 171 176 
63 149 147 103 43 78 161 
143 168 53 61 

